COLUMNS

passenger_count
pickup_ID
dropoff_ID
request_time_sec
pickup_district
LDuals
IDuals
vehicle_ID
pick_position
drop_position
REQUESTS_INFO
1      674       351       68346     189       137       137       16        1         3         
1      851       602       68332     291       136       136       68        1         2         
1      625       305       68350     189       174       170       76        1         3         
3      642       1403      68364     131       144       144       98        1         3         
3      625       711       68323     189       213       209       197       1         3         
2      621       530       68349     280       187       183       213       1         3         
1      647       431       68321     280       171       171       241       1         4         
2      714       622       68338     131       193       193       258       1         2         
2      377       886       68360     168       113       113       272       1         2         
2      700       838       68365     290       110       110       319       1         2         
1      374       276       68350     119       139       139       321       1         2         
3      689       544       68343     131       185       185       348       1         2         
1      804       118       68368     291       117       117       388       1         4         
3      646       534       68333     280       222       218       464       1         2         
3      646       311       68311     280       244       240       587       1         2         
2      629       813       68343     189       109       109       656       1         4         
2      398       336       68329     168       206       206       685       1         2         
1      621       417       68335     280       201       205       752       1         2         
1      414       372       68368     100       81        81        805       1         2         
2      647       719       68302     280       242       238       883       1         2         
1      602       458       68351     189       186       182       894       1         3         
1      628       527       68348     189       164       164       987       1         3         
1      652       458       68323     189       207       207       1014      1         3         
1      646       916       68312     280       243       232       1131      1         3         
2      714       144       68346     131       173       177       1142      1         3         
1      781       504       68312     291       168       168       1190      1         3         
1      896       893       68343     291       146       151       1204      1         2         
1      782       1359      68352     291       170       179       1229      1         3         
3      627       228       68302     189       227       228       1237      1         3         
1      738       606       68340     189       146       146       1243      1         4         
1      735       981       68336     131       186       186       1318      1         2         
3      621       462       68282     280       254       258       1407      1         2         
2      694       324       68313     189       145       145       1460      1         3         
3      621       530       68349     280       187       183       1466      1         2         
2      399       504       68343     168       195       195       1479      1         2         
2      929       608       68366     290       118       118       1563      1         3         
4      630       842       68326     189       184       184       1826      1         2         
2      630       621       68317     189       193       193       1946      1         2         
2      624       885       68369     189       82        82        1996      1         3         
1      748       739       68349     290       114       114       2186      1         3         
1      465       231       68345     199       164       164       2224      1         2         
1      699       1002      68356     290       130       131       2289      1         4         
1      700       972       68358     290       117       117       2322      1         3         
1      781       690       68339     291       191       191       2323      1         2         
3      399       504       68343     168       195       195       2334      1         2         
1      465       632       68346     199       163       163       2425      1         2         
1      395       115       68352     100       125       125       2468      1         3         
2      813       551       68370     290       0         0         0         0         0         
2      434       388       68370     52        0         0         0         0         0         
1      460       621       68370     189       0         0         0         0         0         
1      211       441       68370     266       0         0         0         0         0         
1      960       838       68370     291       0         0         0         0         0         
3      1066      936       68371     291       0         0         0         0         0         
1      847       983       68371     291       0         0         0         0         0         
1      923       984       68371     290       0         0         0         0         0         
1      137       312       68371     286       0         0         0         0         0         
2      1066      936       68371     291       0         0         0         0         0         
3      328       476       68372     299       0         0         0         0         0         
1      805       1002      68372     291       0         0         0         0         0         
1      438       452       68372     100       0         0         0         0         0         
1      696       507       68372     189       0         0         0         0         0         
1      231       253       68372     266       0         0         0         0         0         
2      865       905       68373     290       0         0         0         0         0         
1      579       504       68373     189       0         0         0         0         0         
1      356       597       68373     119       0         0         0         0         0         
1      513       655       68373     199       0         0         0         0         0         
2      314       307       68373     119       0         0         0         0         0         
1      836       702       68373     290       0         0         0         0         0         
1      292       502       68373     87        0         0         0         0         0         
1      268       373       68373     299       0         0         0         0         0         
1      936       782       68373     291       0         0         0         0         0         
2      624       521       68374     189       0         0         0         0         0         
3      624       521       68374     189       0         0         0         0         0         
3      571       350       68374     52        0         0         0         0         0         
3      571       350       68374     52        0         0         0         0         0         
1      314       236       68374     119       0         0         0         0         0         
1      408       418       68374     299       0         0         0         0         0         
2      630       189       68375     189       0         0         0         0         0         
2      794       679       68375     290       0         0         0         0         0         
3      794       679       68375     290       0         0         0         0         0         
1      500       288       68375     52        0         0         0         0         0         
2      308       190       68375     127       0         0         0         0         0         
1      413       504       68375     52        0         0         0         0         0         
1      860       865       68375     290       0         0         0         0         0         
1      550       368       68376     189       0         0         0         0         0         
1      628       1088      68376     189       0         0         0         0         0         
1      621       116       68376     280       0         0         0         0         0         
1      788       886       68376     290       0         0         0         0         0         
1      556       199       68376     199       0         0         0         0         0         
1      881       722       68377     290       0         0         0         0         0         
1      849       815       68377     291       0         0         0         0         0         
1      738       599       68377     189       0         0         0         0         0         
1      1048      699       68377     291       0         0         0         0         0         
1      480       288       68377     52        0         0         0         0         0         
1      369       327       68377     52        0         0         0         0         0         
2      452       483       68377     52        0         0         0         0         0         
1      835       885       68378     290       0         0         0         0         0         
2      476       802       68378     52        0         0         0         0         0         
3      476       802       68378     52        0         0         0         0         0         
3      347       618       68378     299       0         0         0         0         0         
1      913       1022      68378     291       0         0         0         0         0         
1      499       556       68378     52        0         0         0         0         0         
2      347       618       68378     299       0         0         0         0         0         
1      199       481       68378     178       0         0         0         0         0         
1      669       596       68378     280       0         0         0         0         0         
1      676       928       68378     189       0         0         0         0         0         
1      534       332       68378     199       0         0         0         0         0         
1      747       534       68378     290       0         0         0         0         0         
1      668       781       68378     280       0         0         0         0         0         
2      712       981       68379     131       0         0         0         0         0         
3      712       981       68379     131       0         0         0         0         0         
1      737       604       68379     189       0         0         0         0         0         
2      605       170       68379     189       0         0         0         0         0         
1      194       64        68379     207       0         0         0         0         0         
1      528       653       68380     52        0         0         0         0         0         
1      233       816       68380     206       0         0         0         0         0         
1      577       500       68380     189       0         0         0         0         0         
1      768       654       68380     290       0         0         0         0         0         
1      247       351       68380     266       0         0         0         0         0         
1      790       726       68380     290       0         0         0         0         0         
1      749       860       68381     290       0         0         0         0         0         
1      1196      1214      68381     129       0         0         0         0         0         
1      513       214       68381     199       0         0         0         0         0         
1      375       353       68381     119       0         0         0         0         0         
3      247       367       68382     266       0         0         0         0         0         
3      552       532       68382     189       0         0         0         0         0         
2      247       367       68382     266       0         0         0         0         0         
3      552       532       68382     189       0         0         0         0         0         
1      648       462       68382     189       0         0         0         0         0         
2      314       327       68382     119       0         0         0         0         0         
1      1011      770       68382     84        0         0         0         0         0         
1      463       500       68382     168       0         0         0         0         0         
1      925       887       68382     290       0         0         0         0         0         
1      702       863       68383     290       0         0         0         0         0         
1      60        136       68383     9         0         0         0         0         0         
1      79        291       68383     98        0         0         0         0         0         
1      530       346       68383     189       0         0         0         0         0         
1      557       884       68383     189       0         0         0         0         0         
3      697       990       68384     189       0         0         0         0         0         
1      253       203       68384     206       0         0         0         0         0         
1      371       387       68384     52        0         0         0         0         0         
1      873       718       68384     291       0         0         0         0         0         
3      697       990       68384     189       0         0         0         0         0         
1      648       504       68385     189       0         0         0         0         0         
1      116       646       68385     9         0         0         0         0         0         
3      482       195       68385     189       0         0         0         0         0         
2      482       195       68385     189       0         0         0         0         0         
2      756       252       68385     131       0         0         0         0         0         
1      456       358       68385     52        0         0         0         0         0         
1      197       269       68385     178       0         0         0         0         0         
2      983       913       68386     291       0         0         0         0         0         
3      983       913       68386     291       0         0         0         0         0         
3      1121      675       68386     84        0         0         0         0         0         
1      330       268       68386     127       0         0         0         0         0         
1      555       791       68386     199       0         0         0         0         0         
1      190       576       68387     286       0         0         0         0         0         
1      1002      1088      68387     291       0         0         0         0         0         
1      287       408       68387     299       0         0         0         0         0         
1      390       328       68387     52        0         0         0         0         0         
1      1211      720       68387     129       0         0         0         0         0         
2      388       270       68387     299       0         0         0         0         0         
1      766       850       68387     290       0         0         0         0         0         
1      968       1127      68387     290       0         0         0         0         0         
1      923       698       68387     290       0         0         0         0         0         
1      792       238       68387     290       0         0         0         0         0         
1      686       391       68388     131       0         0         0         0         0         
4      970       723       68388     290       0         0         0         0         0         
2      604       500       68388     189       0         0         0         0         0         
1      936       983       68388     291       0         0         0         0         0         
3      120       144       68388     57        0         0         0         0         0         
1      328       234       68388     299       0         0         0         0         0         
1      474       669       68388     52        0         0         0         0         0         
1      696       460       68388     189       0         0         0         0         0         
1      327       252       68388     299       0         0         0         0         0         
1      735       545       68389     131       0         0         0         0         0         
1      925       946       68389     290       0         0         0         0         0         
1      1489      1245      68389     296       0         0         0         0         0         
3      305       241       68389     299       0         0         0         0         0         
3      923       694       68389     290       0         0         0         0         0         
3      305       241       68389     299       0         0         0         0         0         
3      923       694       68389     290       0         0         0         0         0         
1      413       389       68389     52        0         0         0         0         0         
1      556       326       68389     199       0         0         0         0         0         
1      501       325       68390     52        0         0         0         0         0         
1      698       605       68390     189       0         0         0         0         0         
2      905       528       68390     290       0         0         0         0         0         
1      1026      947       68390     291       0         0         0         0         0         
1      927       905       68390     290       0         0         0         0         0         
2      1067      904       68390     291       0         0         0         0         0         
1      408       233       68390     299       0         0         0         0         0         
3      504       529       68391     52        0         0         0         0         0         
3      504       529       68391     52        0         0         0         0         0         
1      907       550       68391     290       0         0         0         0         0         
3      701       679       68391     290       0         0         0         0         0         
1      216       10        68391     178       0         0         0         0         0         
1      10        216       68391     98        0         0         0         0         0         
2      212       81        68391     266       0         0         0         0         0         
1      99        345       68391     286       0         0         0         0         0         
1      1068      748       68391     291       0         0         0         0         0         
1      1263      1233      68391     192       0         0         0         0         0         
1      274       389       68391     87        0         0         0         0         0         
2      536       628       68392     189       0         0         0         0         0         
3      536       628       68392     189       0         0         0         0         0         
1      116       230       68392     9         0         0         0         0         0         
1      100       790       68392     57        0         0         0         0         0         
1      864       505       68392     290       0         0         0         0         0         
1      630       464       68392     189       0         0         0         0         0         
1      619       544       68392     131       0         0         0         0         0         
1      249       505       68392     266       0         0         0         0         0         
1      457       714       68392     52        0         0         0         0         0         
1      207       135       68392     286       0         0         0         0         0         
1      723       951       68393     290       0         0         0         0         0         
1      574       690       68393     189       0         0         0         0         0         
1      664       162       68393     131       0         0         0         0         0         
2      905       839       68393     290       0         0         0         0         0         
1      968       9         68393     290       0         0         0         0         0         
3      905       839       68393     290       0         0         0         0         0         
1      439       712       68393     189       0         0         0         0         0         
1      804       644       68393     291       0         0         0         0         0         
1      649       506       68393     189       0         0         0         0         0         
1      275       412       68393     87        0         0         0         0         0         
2      313       696       68393     87        0         0         0         0         0         
3      862       772       68393     290       0         0         0         0         0         
1      193       230       68393     266       0         0         0         0         0         
1      700       605       68394     290       0         0         0         0         0         
1      737       894       68394     189       0         0         0         0         0         
1      719       621       68394     189       0         0         0         0         0         
3      409       304       68394     52        0         0         0         0         0         
2      749       744       68394     290       0         0         0         0         0         
2      526       274       68394     52        0         0         0         0         0         
1      813       951       68395     290       0         0         0         0         0         
1      328       816       68395     299       0         0         0         0         0         
1      417       526       68395     100       0         0         0         0         0         
1      651       781       68395     189       0         0         0         0         0         
1      690       759       68395     131       0         0         0         0         0         
1      733       759       68395     131       0         0         0         0         0         
1      458       504       68395     52        0         0         0         0         0         
2      462       275       68395     189       0         0         0         0         0         
1      250       526       68396     127       0         0         0         0         0         
1      47        452       68396     98        0         0         0         0         0         
1      923       905       68396     290       0         0         0         0         0         
1      499       574       68397     52        0         0         0         0         0         
2      476       480       68397     52        0         0         0         0         0         
1      461       788       68397     189       0         0         0         0         0         
1      256       549       68397     87        0         0         0         0         0         
3      476       480       68397     52        0         0         0         0         0         
3      556       597       68398     199       0         0         0         0         0         
1      292       163       68398     87        0         0         0         0         0         
1      271       484       68398     127       0         0         0         0         0         
1      662       992       68398     131       0         0         0         0         0         
4      474       646       68398     52        0         0         0         0         0         
1      555       765       68398     199       0         0         0         0         0         
1      947       860       68398     290       0         0         0         0         0         
1      836       701       68398     290       0         0         0         0         0         
1      607       664       68399     189       0         0         0         0         0         
1      864       511       68399     290       0         0         0         0         0         
1      1022      674       68399     291       0         0         0         0         0         
1      581       346       68399     189       0         0         0         0         0         
1      850       742       68399     291       0         0         0         0         0         
1      1245      731       68399     192       0         0         0         0         0         
1      352       725       68399     119       0         0         0         0         0         
1      430       217       68399     52        0         0         0         0         0         
1      462       347       68399     189       0         0         0         0         0         
1      735       662       68399     131       0         0         0         0         0         
